language ESSENCE' 1.0
$ minion Nodes: 1
$ minion TotalTime: 0.000345
$ Savile Row TotalTime: 0.137
letting f_Matrix1D_SetOccurrence be [[true, true;int(5..6)], 
[true, true;int(5..6)], 
[true, true;int(5..6)];int(2..4)]
